c A SAT instance generated from a 3-CNF formula that had 45 clauses and 10 variables
p cnf 10 45
-4 -2 1 0
-8 9 -5 0
6 7 10 0
6 8 -10 0
6 -3 -8 0
5 -8 -1 0
8 2 1 0
-4 7 10 0
2 6 4 0
1 7 -3 0
4 -7 6 0
8 -4 -5 0
-9 6 7 0
8 -2 9 0
-6 -10 -4 0
-1 2 8 0
2 9 5 0
4 -8 -1 0
2 1 -3 0
3 1 6 0
8 3 1 0
-6 -9 10 0
-5 10 -7 0
-7 -4 -8 0
-2 -8 5 0
7 4 -2 0
2 -6 1 0
-4 -7 5 0
-8 -5 -6 0
-8 6 5 0
3 -9 -6 0
6 4 -5 0
6 5 -10 0
-10 -4 2 0
7 -5 -2 0
-8 -5 4 0
-10 -9 1 0
-4 9 2 0
9 -7 2 0
10 4 3 0
7 8 4 0
-6 4 -2 0
-9 -7 6 0
5 -1 2 0
-5 2 3 0
%
0

1 14 24 8 68 68 25 33 34 85
